c A SAT instance that has 21 clauses and 5 variables
p cnf 5 21
-4 -3 5 0
-5 4 3 0
5 -2 1 0
3 -2 4 0
3 5 -4 0
-1 
2 
3 4 
5 0
-2 1 5 0
3 -5 -4 0
-3 1 4 0
2 -5 -1 0
1 -2 -3 
-4 -5 0
5 -4 -1 0
3 1 
5 0
-2 -3 -4 0
-5 -1 2 0
-2 4 -1 0
-5 4 -1 0
-4 -1 5 0
-4 -1 0
1 -2 
-3 
-4 -5 0
-1 2 -3 4 5 0
